
Gurobi 8.1.1 (win64) logging started 11/24/19 13:09:37

Changed value of parameter LogFile to logs/miss/ip/miss-07-15-1.log
   Prev: gurobi.log  Default: 
Changed value of parameter LogToConsole to 0
   Prev: 1  Min: 0  Max: 1  Default: 1
Changed value of parameter TimeLimit to 3600.0
   Prev: 1e+100  Min: 0.0  Max: 1e+100  Default: 1e+100
Optimize a model with 3178 rows, 1500 columns and 12103 nonzeros
Variable types: 0 continuous, 1500 integer (1485 binary)
Coefficient statistics:
  Matrix range     [1e+00, 3e+02]
  Objective range  [1e+00, 1e+00]
  Bounds range     [1e+00, 1e+00]
  RHS range        [1e+00, 3e+02]
Presolve removed 3 rows and 3 columns
Presolve time: 0.09s
Presolved: 3175 rows, 1497 columns, 12094 nonzeros
Variable types: 0 continuous, 1497 integer (1482 binary)

Root relaxation: objective 4.294118e+00, 630 iterations, 0.03 seconds

    Nodes    |    Current Node    |     Objective Bounds      |     Work
 Expl Unexpl |  Obj  Depth IntInf | Incumbent    BestBd   Gap | It/Node Time

     0     0    4.29412    0  135          -    4.29412      -     -    0s
     0     0    6.00000    0   35          -    6.00000      -     -    0s
     0     0    6.00000    0   47          -    6.00000      -     -    0s
     0     0    6.00000    0   29          -    6.00000      -     -    0s
     0     0    6.00000    0   29          -    6.00000      -     -    0s
     0     0    6.00000    0   28          -    6.00000      -     -    0s
     0     0    6.00000    0   33          -    6.00000      -     -    0s
     0     0    6.00000    0   32          -    6.00000      -     -    0s
     0     0    6.00000    0   47          -    6.00000      -     -    0s
     0     0    6.00000    0   11          -    6.00000      -     -    0s
     0     0    6.00000    0   10          -    6.00000      -     -    0s
     0     0    6.00000    0   10          -    6.00000      -     -    0s
H    0     0                      15.0000000    6.00000  60.0%     -    1s
H    0     0                      13.0000000    6.00000  53.8%     -    1s
H    0     0                      12.0000000    6.00000  50.0%     -    1s
     0     0    6.00000    0   10   12.00000    6.00000  50.0%     -    1s
     0     0    6.00000    0   27   12.00000    6.00000  50.0%     -    1s
H    0     0                      11.0000000    6.00000  45.5%     -    1s
     0     0    6.00000    0    9   11.00000    6.00000  45.5%     -    1s
     0     0    6.00000    0   14   11.00000    6.00000  45.5%     -    1s
     0     0    6.00000    0    8   11.00000    6.00000  45.5%     -    1s
     0     0    6.00000    0    7   11.00000    6.00000  45.5%     -    1s
     0     0    6.00000    0    7   11.00000    6.00000  45.5%     -    1s
     0     0    6.00000    0   24   11.00000    6.00000  45.5%     -    1s
     0     0    6.00000    0   29   11.00000    6.00000  45.5%     -    1s
     0     0    6.00000    0    8   11.00000    6.00000  45.5%     -    1s
     0     0    6.00000    0    8   11.00000    6.00000  45.5%     -    1s
H    0     0                      10.0000000    6.00000  40.0%     -    1s
     0     0    6.00000    0   63   10.00000    6.00000  40.0%     -    1s
     0     0    6.00000    0   60   10.00000    6.00000  40.0%     -    1s
     0     0    6.00000    0   16   10.00000    6.00000  40.0%     -    1s
     0     0    6.00000    0   10   10.00000    6.00000  40.0%     -    1s
     0     0    6.00000    0   10   10.00000    6.00000  40.0%     -    2s
     0     0    6.00000    0    8   10.00000    6.00000  40.0%     -    2s
     0     0    6.00000    0   12   10.00000    6.00000  40.0%     -    2s
     0     0    6.00000    0   12   10.00000    6.00000  40.0%     -    2s
     0     0    6.00000    0   11   10.00000    6.00000  40.0%     -    2s
     0     0    6.00000    0   11   10.00000    6.00000  40.0%     -    2s
     0     0    6.00000    0   11   10.00000    6.00000  40.0%     -    2s
     0     0    6.00000    0   11   10.00000    6.00000  40.0%     -    2s
     0     2    6.00000    0    8   10.00000    6.00000  40.0%     -    2s
H  818   373                       9.0000000    6.00000  33.3%  17.4    3s
H  839   368                       8.0000000    6.00000  25.0%  22.8    3s
  1178   440 infeasible   89         8.00000    6.00000  25.0%  33.5    5s
 20915 12441 infeasible   65         8.00000    6.00000  25.0%  10.1   11s
 32610 19458    6.00000  136   36    8.00000    6.00000  25.0%  10.0   15s
H44800 14208                       7.0000000    6.00000  14.3%   9.5   17s
 45106 14172 infeasible   64         7.00000    6.00000  14.3%   9.6   20s
 70297  6293 infeasible   90         7.00000    6.00000  14.3%   9.7   25s
 89117  1569 infeasible  122         7.00000    6.00000  14.3%  10.4   30s
 110848  2358    6.00000   85   50    7.00000    6.00000  14.3%  10.9   35s
 134176  4235 infeasible  105         7.00000    6.00000  14.3%  11.1   40s
 151852  4508    6.00000   98   18    7.00000    6.00000  14.3%  11.4   45s
 171985  4196 infeasible   64         7.00000    6.00000  14.3%  11.7   50s
 193268  3887 infeasible  112         7.00000    6.00000  14.3%  11.8   55s
 213617  3426 infeasible  127         7.00000    6.00000  14.3%  12.0   60s
 234551  3220 infeasible   95         7.00000    6.00000  14.3%  12.1   65s
 253792  2632 infeasible  128         7.00000    6.00000  14.3%  12.2   70s
 272595  4977 infeasible   98         7.00000    6.00000  14.3%  12.4   75s
 289904  5215 infeasible  102         7.00000    6.00000  14.3%  12.4   80s
 307682  4774 infeasible  115         7.00000    6.00000  14.3%  12.5   85s
 324760  4696 infeasible  108         7.00000    6.00000  14.3%  12.6   90s
 344501  4399 infeasible  108         7.00000    6.00000  14.3%  12.6   95s
 363061  3982 infeasible  123         7.00000    6.00000  14.3%  12.7  100s
 381441  3496 infeasible  119         7.00000    6.00000  14.3%  12.9  105s
 399130  2502 infeasible  118         7.00000    6.00000  14.3%  13.0  110s
 416339  1238    6.00000   88   43    7.00000    6.00000  14.3%  13.2  115s
 434009  1486    6.00000  114   29    7.00000    6.00000  14.3%  13.3  120s
 458499  2866 infeasible  107         7.00000    6.00000  14.3%  13.2  125s
 481060  2563 infeasible   98         7.00000    6.00000  14.3%  13.2  130s
 503230  1911 infeasible  115         7.00000    6.00000  14.3%  13.2  135s
 525776  1498 infeasible  106         7.00000    6.00000  14.3%  13.2  140s
 545545  1047 infeasible  115         7.00000    6.00000  14.3%  13.2  145s
 570622   955 infeasible  114         7.00000    6.00000  14.3%  13.1  150s
 592037   682 infeasible   86         7.00000    6.00000  14.3%  13.1  155s
 606998    40 infeasible   88         7.00000    6.00000  14.3%  13.2  160s

Cutting planes:
  Inf proof: 16

Explored 608707 nodes (8055191 simplex iterations) in 160.59 seconds
Thread count was 4 (of 4 available processors)

Solution count 8: 7 8 9 ... 15

Optimal solution found (tolerance 1.00e-04)
Best objective 7.000000000000e+00, best bound 7.000000000000e+00, gap 0.0000%
